certificates/rado_a15_c155_N43.cnf
c Rad2 upper bound instance: x1 + 15*x2 - x3 = 155, interval [1,43]
p cnf 43 246
1 11 0
-1 -11 0
1 12 26 0
-1 -12 -26 0
1 13 41 0
-1 -13 -41 0
2 11 12 0
-2 -11 -12 0
2 12 27 0
-2 -12 -27 0
2 13 42 0
-2 -13 -42 0
3 11 13 0
-3 -11 -13 0
3 12 28 0
-3 -12 -28 0
3 13 43 0
-3 -13 -43 0
4 11 14 0
-4 -11 -14 0
4 12 29 0
-4 -12 -29 0
5 11 15 0
-5 -11 -15 0
5 12 30 0
-5 -12 -30 0
1 6 10 0
-1 -6 -10 0
6 11 16 0
-6 -11 -16 0
6 12 31 0
-6 -12 -31 0
2 7 10 0
-2 -7 -10 0
7 11 17 0
-7 -11 -17 0
7 12 32 0
-7 -12 -32 0
3 8 10 0
-3 -8 -10 0
8 11 18 0
-8 -11 -18 0
8 12 33 0
-8 -12 -33 0
4 9 10 0
-4 -9 -10 0
9 11 19 0
-9 -11 -19 0
9 12 34 0
-9 -12 -34 0
5 10 0
-5 -10 0
10 11 20 0
-10 -11 -20 0
10 12 35 0
-10 -12 -35 0
6 10 11 0
-6 -10 -11 0
11 21 0
-11 -21 0
11 12 36 0
-11 -12 -36 0
7 10 12 0
-7 -10 -12 0
11 12 22 0
-11 -12 -22 0
12 37 0
-12 -37 0
8 10 13 0
-8 -10 -13 0
11 13 23 0
-11 -13 -23 0
12 13 38 0
-12 -13 -38 0
9 10 14 0
-9 -10 -14 0
11 14 24 0
-11 -14 -24 0
12 14 39 0
-12 -14 -39 0
10 15 0
-10 -15 0
11 15 25 0
-11 -15 -25 0
12 15 40 0
-12 -15 -40 0
10 11 16 0
-10 -11 -16 0
11 16 26 0
-11 -16 -26 0
12 16 41 0
-12 -16 -41 0
10 12 17 0
-10 -12 -17 0
11 17 27 0
-11 -17 -27 0
12 17 42 0
-12 -17 -42 0
10 13 18 0
-10 -13 -18 0
11 18 28 0
-11 -18 -28 0
12 18 43 0
-12 -18 -43 0
10 14 19 0
-10 -14 -19 0
11 19 29 0
-11 -19 -29 0
10 15 20 0
-10 -15 -20 0
11 20 30 0
-11 -20 -30 0
1 9 21 0
-1 -9 -21 0
10 16 21 0
-10 -16 -21 0
11 21 31 0
-11 -21 -31 0
2 9 22 0
-2 -9 -22 0
10 17 22 0
-10 -17 -22 0
11 22 32 0
-11 -22 -32 0
3 9 23 0
-3 -9 -23 0
10 18 23 0
-10 -18 -23 0
11 23 33 0
-11 -23 -33 0
4 9 24 0
-4 -9 -24 0
10 19 24 0
-10 -19 -24 0
11 24 34 0
-11 -24 -34 0
5 9 25 0
-5 -9 -25 0
10 20 25 0
-10 -20 -25 0
11 25 35 0
-11 -25 -35 0
6 9 26 0
-6 -9 -26 0
10 21 26 0
-10 -21 -26 0
11 26 36 0
-11 -26 -36 0
7 9 27 0
-7 -9 -27 0
10 22 27 0
-10 -22 -27 0
11 27 37 0
-11 -27 -37 0
8 9 28 0
-8 -9 -28 0
10 23 28 0
-10 -23 -28 0
11 28 38 0
-11 -28 -38 0
9 29 0
-9 -29 0
10 24 29 0
-10 -24 -29 0
11 29 39 0
-11 -29 -39 0
9 10 30 0
-9 -10 -30 0
10 25 30 0
-10 -25 -30 0
11 30 40 0
-11 -30 -40 0
9 11 31 0
-9 -11 -31 0
10 26 31 0
-10 -26 -31 0
11 31 41 0
-11 -31 -41 0
9 12 32 0
-9 -12 -32 0
10 27 32 0
-10 -27 -32 0
11 32 42 0
-11 -32 -42 0
9 13 33 0
-9 -13 -33 0
10 28 33 0
-10 -28 -33 0
11 33 43 0
-11 -33 -43 0
9 14 34 0
-9 -14 -34 0
10 29 34 0
-10 -29 -34 0
9 15 35 0
-9 -15 -35 0
10 30 35 0
-10 -30 -35 0
1 8 36 0
-1 -8 -36 0
9 16 36 0
-9 -16 -36 0
10 31 36 0
-10 -31 -36 0
2 8 37 0
-2 -8 -37 0
9 17 37 0
-9 -17 -37 0
10 32 37 0
-10 -32 -37 0
3 8 38 0
-3 -8 -38 0
9 18 38 0
-9 -18 -38 0
10 33 38 0
-10 -33 -38 0
4 8 39 0
-4 -8 -39 0
9 19 39 0
-9 -19 -39 0
10 34 39 0
-10 -34 -39 0
5 8 40 0
-5 -8 -40 0
9 20 40 0
-9 -20 -40 0
10 35 40 0
-10 -35 -40 0
6 8 41 0
-6 -8 -41 0
9 21 41 0
-9 -21 -41 0
10 36 41 0
-10 -36 -41 0
7 8 42 0
-7 -8 -42 0
9 22 42 0
-9 -22 -42 0
10 37 42 0
-10 -37 -42 0
8 43 0
-8 -43 0
9 23 43 0
-9 -23 -43 0
10 38 43 0
-10 -38 -43 0
