certificates/rado_a15_c155_N43.drat
10 -43 0
37 -43 0
-43 0
8 0
-10 0
5 0
15 0
38 0
-40 0
-11 0
-3 0
30 0
35 0
1 0
21 0
20 0
6 0
16 0
33 0
13 0
-12 0
-9 0
-36 0
-41 0
28 0
0
